proyfinal/src/viki/013/experimentInOfficeAgust.take6.output/76da204a-bfb3-42ce-acc0-c148c3b1a264.als.out
Reading from standard input... Use '--help' for help.
============================[ Problem Statistics ]=============================
|                                                                             |
|  Number of variables:         87638                                         |
|  Number of clauses:          161767                                         |
|  Parse time:                   0.03 s                                       |
|                                                                             |
============================[ Search Statistics ]==============================
| Conflicts |          ORIGINAL         |          LEARNT          | Progress |
|           |    Vars  Clauses Literals |    Limit  Clauses Lit/Cl |          |
===============================================================================
|       100 |   65350   115911   289105 |    42500      100     25 | 25.432 % |
|       250 |   59279    96745   241779 |    46750      248     34 | 32.359 % |
|       475 |   59279    96745   241779 |    51425      473     39 | 32.359 % |
|       812 |   59115    96047   240158 |    56568      792     44 | 32.546 % |
|      1318 |   59098    95942   239907 |    62225     1296     48 | 32.566 % |
|      2077 |   59077    95844   239674 |    68447     1955     53 | 32.590 % |
|      3216 |   59077    95844   239674 |    75292     3094     76 | 32.590 % |
|      4924 |   58918    95213   238095 |    82821     4796     68 | 32.771 % |
|      7486 |   58576    94351   236058 |    91104     7334     69 | 33.161 % |
|     11330 |   58203    92811   232447 |   100214    11100     72 | 33.587 % |
|     17096 |   57517    90696   227441 |   110235    16261     72 | 34.370 % |
===============================================================================
restarts              : 78
conflicts             : 21700          (7561 /sec)
decisions             : 87880          (0.00 % random) (30620 /sec)
propagations          : 31534269       (10987481 /sec)
conflict literals     : 1595730        (44.65 % deleted)
Memory used           : 43.04 MB
CPU time              : 2.87002 s

INDETERMINATE
